SYSTEM = bulk
PREC = Normal
ENCUT = 500

ISYM = 2
ISIF = 2

EDIFF = 1E-5
EDIFFG = -0.01
ALGO = N
ISMEAR = 0
SIGMA = 0.02

NSW = 1000
IBRION = 0

SMASS  = 0    
TEBEG  = 300  
TEEND  = 300 
POTIM  = 1
NBLOCK = 10

LPLANE = T
NPAR = 4
LSCALU = F
NSIM = 4

LDAU = T
LDAUTYPE = 2
LDAUL = 2  -1 
LDAUU= 2 0
LDAUJ = 0 0 

#----打开机器学习-----#

ML_LMLFF = .TRUE.
ML_MODE = train
# ML_ISTART = 1 强烈不推荐使用